p cnf 75 280
-1 -5 2 0
-1 -6 3 0
-1 -7 4 0
-2 5 1 0
-2 -8 3 0
-2 -9 4 0
-3 6 1 0
-3 8 2 0
-3 -10 4 0
-4 7 1 0
-4 9 2 0
-4 10 3 0
1 -2 5 0
1 -3 6 0
1 -4 7 0
-5 2 -1 0
-5 -8 6 0
-5 -9 7 0
-6 3 -1 0
-6 8 5 0
-6 -10 7 0
-7 4 -1 0
-7 9 5 0
-7 10 6 0
2 -1 -5 0
2 -3 8 0
2 -4 9 0
5 1 -2 0
5 -6 8 0
5 -7 9 0
-8 3 -2 0
-8 6 -5 0
-8 -10 9 0
-9 4 -2 0
-9 7 -5 0
-9 10 8 0
3 -1 -6 0
3 -2 -8 0
3 -4 10 0
6 1 -3 0
6 -5 -8 0
6 -7 10 0
8 2 -3 0
8 5 -6 0
8 -9 10 0
-10 4 -3 0
-10 7 -6 0
-10 9 -8 0
4 -1 -7 0
4 -2 -9 0
4 -3 -10 0
7 1 -4 0
7 -5 -9 0
7 -6 -10 0
9 2 -4 0
9 5 -7 0
9 -8 -10 0
10 3 -4 0
10 6 -7 0
10 8 -9 0
11 12 0
13 14 0
15 16 0
17 18 0
19 20 0
21 22 0
23 24 0
25 26 0
27 28 0
29 30 0
31 -11 -13 0
31 -12 -14 0
32 -11 -15 0
32 -12 -16 0
33 -11 -17 0
33 -12 -18 0
34 -11 -19 0
34 -12 -20 0
35 -11 -21 0
35 -12 -22 0
36 -11 -23 0
36 -12 -24 0
37 -11 -25 0
37 -12 -26 0
38 -11 -27 0
38 -12 -28 0
39 -11 -29 0
39 -12 -30 0
40 -13 -15 0
40 -14 -16 0
41 -13 -17 0
41 -14 -18 0
42 -13 -19 0
42 -14 -20 0
43 -13 -21 0
43 -14 -22 0
44 -13 -23 0
44 -14 -24 0
45 -13 -25 0
45 -14 -26 0
46 -13 -27 0
46 -14 -28 0
47 -13 -29 0
47 -14 -30 0
48 -15 -17 0
48 -16 -18 0
49 -15 -19 0
49 -16 -20 0
50 -15 -21 0
50 -16 -22 0
51 -15 -23 0
51 -16 -24 0
52 -15 -25 0
52 -16 -26 0
53 -15 -27 0
53 -16 -28 0
54 -15 -29 0
54 -16 -30 0
55 -17 -19 0
55 -18 -20 0
56 -17 -21 0
56 -18 -22 0
57 -17 -23 0
57 -18 -24 0
58 -17 -25 0
58 -18 -26 0
59 -17 -27 0
59 -18 -28 0
60 -17 -29 0
60 -18 -30 0
61 -19 -21 0
61 -20 -22 0
62 -19 -23 0
62 -20 -24 0
63 -19 -25 0
63 -20 -26 0
64 -19 -27 0
64 -20 -28 0
65 -19 -29 0
65 -20 -30 0
66 -21 -23 0
66 -22 -24 0
67 -21 -25 0
67 -22 -26 0
68 -21 -27 0
68 -22 -28 0
69 -21 -29 0
69 -22 -30 0
70 -23 -25 0
70 -24 -26 0
71 -23 -27 0
71 -24 -28 0
72 -23 -29 0
72 -24 -30 0
73 -25 -27 0
73 -26 -28 0
74 -25 -29 0
74 -26 -30 0
75 -27 -29 0
75 -28 -30 0
-31 -2 5 -6 0
-31 -5 2 -3 0
-31 -3 6 -5 0
-31 -6 3 -2 0
-31 2 -3 6 0
-31 3 -2 5 0
-31 5 -6 3 0
-31 6 -5 2 0
-31 -2 5 -7 0
-31 -5 2 -4 0
-31 -4 7 -5 0
-31 -7 4 -2 0
-31 2 -4 7 0
-31 4 -2 5 0
-31 5 -7 4 0
-31 7 -5 2 0
-31 -3 6 -7 0
-31 -6 3 -4 0
-31 -4 7 -6 0
-31 -7 4 -3 0
-31 3 -4 7 0
-31 4 -3 6 0
-31 6 -7 4 0
-31 7 -6 3 0
-32 -1 -5 -8 0
-32 5 1 -3 0
-32 -3 8 5 0
-32 -8 3 -1 0
-32 1 -3 8 0
-32 3 -1 -5 0
-32 -5 -8 3 0
-32 8 5 1 0
-32 -1 -5 -9 0
-32 5 1 -4 0
-32 -4 9 5 0
-32 -9 4 -1 0
-32 1 -4 9 0
-32 4 -1 -5 0
-32 -5 -9 4 0
-32 9 5 1 0
-32 -3 8 -9 0
-32 -8 3 -4 0
-32 -4 9 -8 0
-32 -9 4 -3 0
-32 3 -4 9 0
-32 4 -3 8 0
-32 8 -9 4 0
-32 9 -8 3 0
-33 -1 -6 8 0
-33 6 1 -2 0
-33 -2 -8 6 0
-33 8 2 -1 0
-33 1 -2 -8 0
-33 2 -1 -6 0
-33 -6 8 2 0
-33 -8 6 1 0
-33 -1 -6 -10 0
-33 6 1 -4 0
-33 -4 10 6 0
-33 -10 4 -1 0
-33 1 -4 10 0
-33 4 -1 -6 0
-33 -6 -10 4 0
-33 10 6 1 0
-33 -2 -8 -10 0
-33 8 2 -4 0
-33 -4 10 8 0
-33 -10 4 -2 0
-33 2 -4 10 0
-33 4 -2 -8 0
-33 -8 -10 4 0
-33 10 8 2 0
-34 -1 -7 9 0
-34 7 1 -2 0
-34 -2 -9 7 0
-34 9 2 -1 0
-34 1 -2 -9 0
-34 2 -1 -7 0
-34 -7 9 2 0
-34 -9 7 1 0
-34 -1 -7 10 0
-34 7 1 -3 0
-34 -3 -10 7 0
-34 10 3 -1 0
-34 1 -3 -10 0
-34 3 -1 -7 0
-34 -7 10 3 0
-34 -10 7 1 0
-34 -2 -9 10 0
-34 9 2 -3 0
-34 -3 -10 9 0
-34 10 3 -2 0
-34 2 -3 -10 0
-34 3 -2 -9 0
-34 -9 10 3 0
-34 -10 9 2 0
-40 -6 8 -9 0
-40 -8 6 -7 0
-40 -7 9 -8 0
-40 -9 7 -6 0
-40 6 -7 9 0
-40 7 -6 8 0
-40 8 -9 7 0
-40 9 -8 6 0
-41 -5 -8 -10 0
-41 8 5 -7 0
-41 -7 10 8 0
-41 -10 7 -5 0
-41 5 -7 10 0
-41 7 -5 -8 0
-41 -8 -10 7 0
-41 10 8 5 0
-42 -5 -9 10 0
-42 9 5 -6 0
-42 -6 -10 9 0
-42 10 6 -5 0
-42 5 -6 -10 0
-42 6 -5 -9 0
-42 -9 10 6 0
-42 -10 9 5 0
